<instance format="XCSP3" type="CSP">
  <variables>
    <var id="x"> 0..10 </var>
    <var id="y"> 0..10 </var> 
    <var id="z"> -10..10 </var>
    <var id="b1"> 0 1 </var>
    <var id="b2"> 0 1 </var>
  </variables>   
  <constraints>
    <intension id="c1" hreifiedFrom="b1"> gt(x,4) </intension>
    <intension id="c2"> eq(z,sub(y,x)) </intension>
    <allDifferent id="c3" hreifiedFrom="b2"> x y z </allDifferent>
    <intension id="c4"> @or@(b1,b2) </intension>
  </constraints>
</instance>
